Minimize
obj: x0 + x1 + x2 + x3 + x4

Subject To
c0: x1 + x2 = 33
c1: x0 + x3 = 4
c2: x0 + x2 + x3 + x4 = 37
c3: x1 = 13
c4: x0 + x1 + x2 + x4 = 48

Bounds
x0 >= 0
x1 >= 0
x2 >= 0
x3 >= 0
x4 >= 0

Integer
x0 x1 x2 x3 x4

End
